500
750 750
1 522 51
2 521 583
3 519 581
4 518 352
5 516 113
6 515 805
7 515 782
8 511 23
9 510 726
10 510 9
11 510 699
12 509 517
13 506 265
14 505 875
15 505 803
16 504 191
17 504 912
18 504 268
19 504 294
20 503 557
21 500 402
22 500 287
23 499 95
24 497 857
25 494 993
26 493 665
27 492 671
28 492 15
29 491 834
30 488 512
31 487 36
32 485 487
33 483 141
34 481 367
35 477 115
36 475 177
37 475 787
38 475 527
39 475 231
40 473 973
41 472 406
42 472 714
43 472 700
44 469 758
45 468 914
46 468 319
47 467 486
48 466 828
49 466 591
50 465 480
51 464 978
52 463 554
53 462 733
54 461 57
55 461 715
56 461 610
57 458 894
58 458 901
59 458 226
60 457 483
61 456 7
62 454 445
63 454 330
64 454 843
65 454 448
66 452 638
67 452 928
68 450 85
69 449 965
70 448 753
71 447 25
72 446 612
73 445 886
74 444 460
75 444 754
76 443 468
77 442 706
78 441 190
79 441 950
80 439 795
81 439 780
82 439 468
83 438 145
84 438 341
85 437 316
86 437 47
87 437 190
88 435 815
89 433 582
90 432 537
91 432 728
92 431 220
93 430 795
94 429 910
95 429 811
96 429 759
97 427 751
98 427 159
99 427 147
100 426 189
101 426 140
102 425 279
103 424 314
104 423 768
105 423 4
106 423 181
107 421 194
108 420 13
109 419 605
110 419 616
111 418 184
112 416 389
113 416 766
114 415 997
115 415 210
116 414 694
117 413 99
118 411 638
119 411 338
120 407 694
121 407 719
122 406 104
123 405 563
124 404 278
125 403 308
126 403 660
127 402 519
128 402 342
129 402 375
130 402 790
131 401 601
132 400 522
133 399 907
134 398 224
135 396 582
136 395 547
137 395 370
138 394 662
139 394 158
140 390 71
141 390 790
142 390 608
143 389 928
144 389 239
145 389 165
146 388 251
147 388 840
148 387 551
149 387 213
150 386 537
151 384 447
152 382 967
153 381 304
154 380 594
155 380 44
156 379 190
157 378 876
158 378 484
159 378 342
160 376 7
161 376 319
162 374 820
163 373 885
164 373 704
165 373 778
166 372 220
167 368 813
168 366 706
169 363 299
170 362 810
171 361 555
172 361 276
173 359 212
174 359 885
175 357 385
176 357 303
177 356 993
178 356 708
179 355 665
180 354 52
181 353 63
182 351 642
183 351 808
184 351 998
185 350 811
186 350 727
187 349 49
188 349 386
189 346 298
190 346 996
191 345 870
192 345 352
193 344 880
194 344 583
195 343 105
196 342 781
197 342 890
198 342 392
199 342 587
200 341 53
201 341 460
202 340 419
203 340 266
204 338 423
205 338 607
206 337 588
207 335 441
208 333 828
209 330 386
210 330 370
211 327 137
212 327 510
213 326 133
214 325 982
215 324 388
216 324 860
217 323 491
218 323 674
219 322 655
220 321 230
221 319 910
222 318 749
223 318 146
224 317 721
225 316 5
226 316 947
227 315 854
228 314 593
229 314 333
230 314 178
231 313 807
232 313 131
233 312 141
234 311 401
235 311 909
236 310 736
237 310 863
238 309 412
239 309 870
240 308 528
241 308 447
242 307 961
243 306 502
244 304 869
245 304 475
246 302 60
247 302 254
248 301 428
249 301 386
250 301 648
251 301 568
252 300 226
253 300 45
254 300 276
255 296 599
256 296 35
257 296 179
258 294 854
259 293 918
260 293 352
261 292 575
262 292 297
263 290 883
264 290 434
265 288 403
266 288 969
267 287 553
268 287 682
269 286 198
270 285 645
271 285 820
272 284 395
273 284 479
274 283 838
275 282 944
276 281 939
277 281 99
278 280 229
279 279 566
280 278 637
281 278 373
282 277 345
283 276 524
284 275 193
285 274 541
286 274 945
287 274 535
288 274 256
289 270 454
290 269 429
291 268 441
292 265 999
293 265 209
294 265 666
295 265 566
296 265 938
297 265 614
298 265 64
299 264 127
300 262 379
301 262 610
302 259 899
303 258 319
304 257 599
305 256 357
306 255 812
307 254 668
308 254 565
309 254 122
310 253 479
311 252 203
312 251 114
313 250 973
314 249 125
315 249 230
316 249 666
317 248 112
318 248 854
319 246 293
320 245 358
321 245 486
322 244 621
323 244 501
324 244 182
325 240 763
326 239 25
327 238 731
328 238 584
329 237 658
330 234 745
331 233 758
332 232 912
333 232 552
334 231 286
335 230 251
336 229 239
337 227 975
338 226 433
339 226 951
340 226 776
341 222 210
342 221 124
343 220 825
344 218 257
345 218 855
346 218 5
347 217 690
348 217 724
349 216 482
350 216 751
351 216 96
352 216 799
353 215 296
354 215 23
355 214 319
356 214 973
357 213 458
358 212 860
359 212 755
360 210 814
361 210 522
362 209 846
363 209 72
364 206 189
365 206 897
366 205 415
367 203 704
368 202 964
369 201 294
370 196 381
371 196 60
372 194 570
373 194 500
374 192 507
375 192 824
376 190 168
377 184 470
378 183 961
379 181 775
380 181 645
381 181 114
382 181 441
383 180 90
384 179 164
385 179 954
386 178 54
387 178 698
388 178 552
389 178 618
390 177 450
391 176 304
392 175 692
393 172 667
394 172 668
395 172 252
396 171 464
397 171 573
398 168 390
399 167 647
400 165 152
401 165 296
402 163 891
403 162 299
404 162 317
405 159 465
406 159 872
407 158 560
408 157 659
409 157 98
410 156 896
411 156 361
412 154 265
413 154 470
414 154 418
415 153 400
416 151 31
417 150 619
418 150 792
419 150 693
420 148 981
421 148 659
422 147 308
423 145 797
424 144 215
425 144 934
426 144 862
427 143 804
428 142 431
429 140 321
430 140 192
431 139 712
432 138 588
433 137 510
434 137 875
435 137 773
436 136 289
437 135 491
438 134 789
439 134 280
440 133 541
441 133 145
442 131 310
443 128 149
444 127 978
445 127 994
446 126 472
447 126 226
448 126 2
449 124 330
450 124 818
451 124 517
452 122 294
453 121 764
454 121 437
455 121 601
456 120 814
457 116 722
458 115 949
459 115 54
460 115 979
461 115 424
462 115 166
463 112 751
464 110 401
465 109 126
466 108 11
467 108 124
468 107 450
469 106 569
470 105 395
471 104 650
472 104 175
473 103 751
474 103 585
475 101 893
476 100 507
477 100 6
478 99 177
479 99 365
480 97 236
481 97 170
482 97 568
483 93 288
484 93 947
485 92 183
486 92 410
487 88 907
488 86 779
489 86 831
490 85 145
491 85 521
492 84 328
493 84 728
494 84 817
495 81 997
496 80 415
497 79 825
498 78 300
499 75 516
500 75 263
